33D32945 STP File, STP Format Version 1.0

SECTION Comments
Name "edge_n14_d5_s46"
Problem "Euclidean Steiner Tree Problem"
Remark "Generated with STPGenerator. 5 dimensions."
END

SECTION Graph
Nodes 14
END

SECTION Coordinates
DDDDD 0 0.4696959581 0.4696959581 0.4696959581 0.4696959581 0.4696959581
DDDDD 1 0.4854901943 0.4854901943 0.4854901943 0.4854901943 0.4854901943
DDDDD 2 0.4042461926 0.4042461926 0.4042461926 0.4042461926 0.4042461926
DDDDD 3 0.7061174278 0.7061174278 0.7061174278 0.7061174278 0.7061174278
DDDDD 4 0.9462171723 0.9462171723 0.9462171723 0.9462171723 0.9462171723
DDDDD 5 0.1370705227 0.1370705227 0.1370705227 0.1370705227 0.1370705227
DDDDD 6 0.0844243104 0.0844243104 0.0844243104 0.0844243104 0.0844243104
DDDDD 7 0.5482809849 0.5482809849 0.5482809849 0.5482809849 0.5482809849
DDDDD 8 0.0280388566 0.0280388566 0.0280388566 0.0280388566 0.0280388566
DDDDD 9 0.8680997448 0.8680997448 0.8680997448 0.8680997448 0.8680997448
DDDDD 10 0.9082862325 0.9082862325 0.9082862325 0.9082862325 0.9082862325
DDDDD 11 0.9183224421 0.9183224421 0.9183224421 0.9183224421 0.9183224421
DDDDD 12 0.4284378902 0.4284378902 0.4284378902 0.4284378902 0.4284378902
DDDDD 13 0.8492767708 0.8492767708 0.8492767708 0.8492767708 0.8492767708
END
